40
    26    78    87    57    31    82    20    28    71    10    41     1    69    94    71    21    74    17    12    37    63    19    43     1    44    89    23    69    49    74    86    99    41    69    47    52    10    25    97    93
     7     8     5     8     6     9     3     4     8     8     4     8     4     5     1     6     5     7     8     3    10     5     7     6     6     7     9    10     9     8     2     6     3     6     4    10     2     9     9     5
   506     0     0   197     0     0   772   818   660     0   801   420     0   593     0   249     0     0   292     0   469   122     0   719    42   152     0   824   241     0     0   966     0     0     0     0   430     0   814     0
